; (last_contact) column

(set-logic ALL)
; rows (m) = 100
; cols (n) = 1
(declare-const D (Array Int (Array Int Int)))
(define-fun m () Int 100)
(define-fun n () Int 1)

(define-fun row1 ((x0 Int)) (Array Int Int)
  (store ((as const (Array Int Int)) 0) 0 x0)
)

(assert (= (select D 0) (row1 261)))
(assert (= (select D 1) (row1 151)))
(assert (= (select D 2) (row1 76)))
(assert (= (select D 3) (row1 92)))
(assert (= (select D 4) (row1 198)))
(assert (= (select D 5) (row1 139)))
(assert (= (select D 6) (row1 217)))
(assert (= (select D 7) (row1 380)))
(assert (= (select D 8) (row1 50)))
(assert (= (select D 9) (row1 55)))
(assert (= (select D 10) (row1 222)))
(assert (= (select D 11) (row1 137)))
(assert (= (select D 12) (row1 517)))
(assert (= (select D 13) (row1 71)))
(assert (= (select D 14) (row1 174)))
(assert (= (select D 15) (row1 353)))
(assert (= (select D 16) (row1 98)))
(assert (= (select D 17) (row1 38)))
(assert (= (select D 18) (row1 219)))
(assert (= (select D 19) (row1 54)))
(assert (= (select D 20) (row1 262)))
(assert (= (select D 21) (row1 164)))
(assert (= (select D 22) (row1 160)))
(assert (= (select D 23) (row1 342)))
(assert (= (select D 24) (row1 181)))
(assert (= (select D 25) (row1 172)))
(assert (= (select D 26) (row1 296)))
(assert (= (select D 27) (row1 127)))
(assert (= (select D 28) (row1 255)))
(assert (= (select D 29) (row1 348)))
(assert (= (select D 30) (row1 225)))
(assert (= (select D 31) (row1 230)))
(assert (= (select D 32) (row1 208)))
(assert (= (select D 33) (row1 226)))
(assert (= (select D 34) (row1 336)))
(assert (= (select D 35) (row1 242)))
(assert (= (select D 36) (row1 365)))
(assert (= (select D 37) (row1 1666)))
(assert (= (select D 38) (row1 577)))
(assert (= (select D 39) (row1 137)))
(assert (= (select D 40) (row1 160)))
(assert (= (select D 41) (row1 180)))
(assert (= (select D 42) (row1 22)))
(assert (= (select D 43) (row1 1492)))
(assert (= (select D 44) (row1 616)))
(assert (= (select D 45) (row1 242)))
(assert (= (select D 46) (row1 355)))
(assert (= (select D 47) (row1 225)))
(assert (= (select D 48) (row1 160)))
(assert (= (select D 49) (row1 363)))
(assert (= (select D 50) (row1 266)))
(assert (= (select D 51) (row1 253)))
(assert (= (select D 52) (row1 179)))
(assert (= (select D 53) (row1 787)))
(assert (= (select D 54) (row1 145)))
(assert (= (select D 55) (row1 174)))
(assert (= (select D 56) (row1 104)))
(assert (= (select D 57) (row1 13)))
(assert (= (select D 58) (row1 185)))
(assert (= (select D 59) (row1 1778)))
(assert (= (select D 60) (row1 138)))
(assert (= (select D 61) (row1 812)))
(assert (= (select D 62) (row1 164)))
(assert (= (select D 63) (row1 391)))
(assert (= (select D 64) (row1 357)))
(assert (= (select D 65) (row1 91)))
(assert (= (select D 66) (row1 528)))
(assert (= (select D 67) (row1 273)))
(assert (= (select D 68) (row1 158)))
(assert (= (select D 69) (row1 177)))
(assert (= (select D 70) (row1 258)))
(assert (= (select D 71) (row1 172)))
(assert (= (select D 72) (row1 154)))
(assert (= (select D 73) (row1 291)))
(assert (= (select D 74) (row1 181)))
(assert (= (select D 75) (row1 176)))
(assert (= (select D 76) (row1 211)))
(assert (= (select D 77) (row1 349)))
(assert (= (select D 78) (row1 272)))
(assert (= (select D 79) (row1 208)))
(assert (= (select D 80) (row1 193)))
(assert (= (select D 81) (row1 212)))
(assert (= (select D 82) (row1 20)))
(assert (= (select D 83) (row1 1042)))
(assert (= (select D 84) (row1 246)))
(assert (= (select D 85) (row1 529)))
(assert (= (select D 86) (row1 1467)))
(assert (= (select D 87) (row1 1389)))
(assert (= (select D 88) (row1 188)))
(assert (= (select D 89) (row1 180)))
(assert (= (select D 90) (row1 48)))
(assert (= (select D 91) (row1 213)))
(assert (= (select D 92) (row1 583)))
(assert (= (select D 93) (row1 221)))
(assert (= (select D 94) (row1 173)))
(assert (= (select D 95) (row1 426)))
(assert (= (select D 96) (row1 287)))
(assert (= (select D 97) (row1 101)))
(assert (= (select D 98) (row1 203)))
(assert (= (select D 99) (row1 197)))


(assert
  (forall ((i Int))
    (=>
      (and (>= i 0) (< i m))
      (and
        (>= (select (select D i) 0) 0)
        (<  (select (select D i) 0) 6000)
      )
    )
  )
)

(check-sat)
